<?xml version="1.0" encoding="UTF-8"?><osil xmlns="os.optimizationservices.org"   xmlns:xsi="http://www.w3.org/2001/XMLSchema-instance" xsi:schemaLocation="os.optimizationservices.org http://www.optimizationservices.org/schemas/2.0/OSiL.xsd" ><instanceHeader><name>q_20_0_75_4</name></instanceHeader><instanceData><variables numberOfVariables="20"><var name="x1" ub="1"/><var name="x2" ub="1"/><var name="x3" ub="1"/><var name="x4" ub="1"/><var name="x5" ub="1"/><var name="x6" ub="1"/><var name="x7" ub="1"/><var name="x8" ub="1"/><var name="x9" ub="1"/><var name="x10" ub="1"/><var name="x11" ub="1"/><var name="x12" ub="1"/><var name="x13" ub="1"/><var name="x14" ub="1"/><var name="x15" ub="1"/><var name="x16" ub="1"/><var name="x17" ub="1"/><var name="x18" ub="1"/><var name="x19" ub="1"/><var name="x20" ub="1"/></variables><objectives numberOfObjectives="1"><obj maxOrMin="min" name="defObj_x21" numberOfObjCoef="20"><coef idx="0">2.53e-2</coef><coef idx="1">-.9476</coef><coef idx="2">-.3171</coef><coef idx="3">.5691</coef><coef idx="4">-.3612</coef><coef idx="5">4.88e-2</coef><coef idx="6">.423</coef><coef idx="7">.2762</coef><coef idx="8">2.21e-2</coef><coef idx="9">.3975</coef><coef idx="10">-.5281</coef><coef idx="11">-.722</coef><coef idx="12">-.1433</coef><coef idx="13">.1957</coef><coef idx="14">.7882</coef><coef idx="15">.9988</coef><coef idx="16">.8552</coef><coef idx="17">.3681</coef><coef idx="18">-.6187</coef><coef idx="19">-.2208</coef></obj></objectives><quadraticCoefficients  numberOfQuadraticTerms="110" ><qTerm  idx="-1"  idxOne="0"  idxTwo="0"  coef=".9703"/><qTerm  idx="-1"  idxOne="0"  idxTwo="1"  coef=".9858"/><qTerm  idx="-1"  idxOne="0"  idxTwo="2"  coef=".859"/><qTerm  idx="-1"  idxOne="0"  idxTwo="3"  coef="2.64e-2"/><qTerm  idx="-1"  idxOne="0"  idxTwo="4"  coef="-.8325"/><qTerm  idx="-1"  idxOne="0"  idxTwo="7"  coef="-.2402"/><qTerm  idx="-1"  idxOne="0"  idxTwo="10"  coef=".9962"/><qTerm  idx="-1"  idxOne="0"  idxTwo="12"  coef="-.612"/><qTerm  idx="-1"  idxOne="0"  idxTwo="14"  coef="-.7468"/><qTerm  idx="-1"  idxOne="0"  idxTwo="15"  coef=".5066"/><qTerm  idx="-1"  idxOne="0"  idxTwo="16"  coef=".5209"/><qTerm  idx="-1"  idxOne="0"  idxTwo="18"  coef="-.8096"/><qTerm  idx="-1"  idxOne="0"  idxTwo="19"  coef=".2097"/><qTerm  idx="-1"  idxOne="1"  idxTwo="3"  coef="-.8223"/><qTerm  idx="-1"  idxOne="1"  idxTwo="7"  coef=".8219"/><qTerm  idx="-1"  idxOne="1"  idxTwo="8"  coef=".8915"/><qTerm  idx="-1"  idxOne="1"  idxTwo="10"  coef=".4384"/><qTerm  idx="-1"  idxOne="1"  idxTwo="12"  coef="1.04e-2"/><qTerm  idx="-1"  idxOne="1"  idxTwo="13"  coef="-.6145"/><qTerm  idx="-1"  idxOne="1"  idxTwo="15"  coef=".3569"/><qTerm  idx="-1"  idxOne="1"  idxTwo="17"  coef="-8.35e-2"/><qTerm  idx="-1"  idxOne="1"  idxTwo="19"  coef="-.1778"/><qTerm  idx="-1"  idxOne="2"  idxTwo="6"  coef=".1688"/><qTerm  idx="-1"  idxOne="2"  idxTwo="7"  coef="-.6302"/><qTerm  idx="-1"  idxOne="2"  idxTwo="9"  coef="5.73e-2"/><qTerm  idx="-1"  idxOne="2"  idxTwo="10"  coef=".8851"/><qTerm  idx="-1"  idxOne="2"  idxTwo="12"  coef=".9515"/><qTerm  idx="-1"  idxOne="2"  idxTwo="14"  coef="-6.04e-2"/><qTerm  idx="-1"  idxOne="2"  idxTwo="15"  coef="-.8915"/><qTerm  idx="-1"  idxOne="2"  idxTwo="16"  coef="-9.68e-2"/><qTerm  idx="-1"  idxOne="2"  idxTwo="17"  coef="-.5954"/><qTerm  idx="-1"  idxOne="2"  idxTwo="19"  coef="-.902"/><qTerm  idx="-1"  idxOne="3"  idxTwo="3"  coef=".9315"/><qTerm  idx="-1"  idxOne="3"  idxTwo="5"  coef=".4294"/><qTerm  idx="-1"  idxOne="3"  idxTwo="6"  coef=".7398"/><qTerm  idx="-1"  idxOne="3"  idxTwo="7"  coef="-.6759"/><qTerm  idx="-1"  idxOne="3"  idxTwo="10"  coef="-1.66e-2"/><qTerm  idx="-1"  idxOne="3"  idxTwo="11"  coef=".3176"/><qTerm  idx="-1"  idxOne="3"  idxTwo="13"  coef="-.434"/><qTerm  idx="-1"  idxOne="3"  idxTwo="14"  coef="-.8219"/><qTerm  idx="-1"  idxOne="3"  idxTwo="18"  coef="-.9323"/><qTerm  idx="-1"  idxOne="4"  idxTwo="4"  coef="-.2384"/><qTerm  idx="-1"  idxOne="4"  idxTwo="5"  coef=".2604"/><qTerm  idx="-1"  idxOne="4"  idxTwo="8"  coef=".4567"/><qTerm  idx="-1"  idxOne="4"  idxTwo="11"  coef=".7508"/><qTerm  idx="-1"  idxOne="4"  idxTwo="12"  coef=".1384"/><qTerm  idx="-1"  idxOne="4"  idxTwo="13"  coef="-.5557"/><qTerm  idx="-1"  idxOne="4"  idxTwo="14"  coef="-.2385"/><qTerm  idx="-1"  idxOne="4"  idxTwo="15"  coef="1.99e-2"/><qTerm  idx="-1"  idxOne="4"  idxTwo="16"  coef=".7632"/><qTerm  idx="-1"  idxOne="4"  idxTwo="19"  coef="-.9947"/><qTerm  idx="-1"  idxOne="5"  idxTwo="6"  coef="-.3877"/><qTerm  idx="-1"  idxOne="5"  idxTwo="7"  coef=".8177"/><qTerm  idx="-1"  idxOne="5"  idxTwo="10"  coef="-.3725"/><qTerm  idx="-1"  idxOne="5"  idxTwo="12"  coef="-.3487"/><qTerm  idx="-1"  idxOne="5"  idxTwo="14"  coef="-.8521"/><qTerm  idx="-1"  idxOne="5"  idxTwo="16"  coef=".7201"/><qTerm  idx="-1"  idxOne="5"  idxTwo="17"  coef="-.9411"/><qTerm  idx="-1"  idxOne="5"  idxTwo="18"  coef="-.6075"/><qTerm  idx="-1"  idxOne="5"  idxTwo="19"  coef=".4446"/><qTerm  idx="-1"  idxOne="6"  idxTwo="6"  coef="-.6889"/><qTerm  idx="-1"  idxOne="6"  idxTwo="9"  coef=".5368"/><qTerm  idx="-1"  idxOne="6"  idxTwo="12"  coef=".9675"/><qTerm  idx="-1"  idxOne="6"  idxTwo="16"  coef="-.1386"/><qTerm  idx="-1"  idxOne="6"  idxTwo="18"  coef="-.4474"/><qTerm  idx="-1"  idxOne="7"  idxTwo="7"  coef="-.8875"/><qTerm  idx="-1"  idxOne="7"  idxTwo="8"  coef="-.7171"/><qTerm  idx="-1"  idxOne="7"  idxTwo="9"  coef="-.2179"/><qTerm  idx="-1"  idxOne="7"  idxTwo="13"  coef="-.317"/><qTerm  idx="-1"  idxOne="7"  idxTwo="14"  coef="-3.32e-2"/><qTerm  idx="-1"  idxOne="7"  idxTwo="16"  coef="-.625"/><qTerm  idx="-1"  idxOne="7"  idxTwo="18"  coef=".2913"/><qTerm  idx="-1"  idxOne="7"  idxTwo="19"  coef="7.55e-2"/><qTerm  idx="-1"  idxOne="8"  idxTwo="8"  coef="-1.78e-2"/><qTerm  idx="-1"  idxOne="8"  idxTwo="9"  coef="-.215"/><qTerm  idx="-1"  idxOne="8"  idxTwo="10"  coef="-.7588"/><qTerm  idx="-1"  idxOne="8"  idxTwo="17"  coef=".2416"/><qTerm  idx="-1"  idxOne="8"  idxTwo="18"  coef="-.1383"/><qTerm  idx="-1"  idxOne="9"  idxTwo="9"  coef=".2175"/><qTerm  idx="-1"  idxOne="9"  idxTwo="12"  coef="-.5311"/><qTerm  idx="-1"  idxOne="9"  idxTwo="14"  coef="-.6322"/><qTerm  idx="-1"  idxOne="9"  idxTwo="15"  coef="-.8211"/><qTerm  idx="-1"  idxOne="9"  idxTwo="17"  coef="-.2421"/><qTerm  idx="-1"  idxOne="9"  idxTwo="19"  coef="-.9794"/><qTerm  idx="-1"  idxOne="10"  idxTwo="10"  coef=".6866"/><qTerm  idx="-1"  idxOne="10"  idxTwo="12"  coef=".144"/><qTerm  idx="-1"  idxOne="10"  idxTwo="15"  coef=".935"/><qTerm  idx="-1"  idxOne="10"  idxTwo="16"  coef="-.7224"/><qTerm  idx="-1"  idxOne="10"  idxTwo="19"  coef="-.79"/><qTerm  idx="-1"  idxOne="11"  idxTwo="14"  coef="-.6261"/><qTerm  idx="-1"  idxOne="11"  idxTwo="15"  coef="-.59"/><qTerm  idx="-1"  idxOne="11"  idxTwo="17"  coef=".8708"/><qTerm  idx="-1"  idxOne="12"  idxTwo="16"  coef=".5423"/><qTerm  idx="-1"  idxOne="12"  idxTwo="18"  coef=".3356"/><qTerm  idx="-1"  idxOne="12"  idxTwo="19"  coef=".142"/><qTerm  idx="-1"  idxOne="13"  idxTwo="14"  coef=".5119"/><qTerm  idx="-1"  idxOne="13"  idxTwo="15"  coef=".7599"/><qTerm  idx="-1"  idxOne="13"  idxTwo="16"  coef="-.4022"/><qTerm  idx="-1"  idxOne="13"  idxTwo="19"  coef=".4446"/><qTerm  idx="-1"  idxOne="14"  idxTwo="15"  coef="-.8166"/><qTerm  idx="-1"  idxOne="14"  idxTwo="17"  coef=".6446"/><qTerm  idx="-1"  idxOne="15"  idxTwo="16"  coef="-.1284"/><qTerm  idx="-1"  idxOne="15"  idxTwo="18"  coef="-.3651"/><qTerm  idx="-1"  idxOne="16"  idxTwo="16"  coef="-.2567"/><qTerm  idx="-1"  idxOne="16"  idxTwo="17"  coef=".1421"/><qTerm  idx="-1"  idxOne="16"  idxTwo="19"  coef="-.8825"/><qTerm  idx="-1"  idxOne="17"  idxTwo="18"  coef="-.6058"/><qTerm  idx="-1"  idxOne="17"  idxTwo="19"  coef=".503"/><qTerm  idx="-1"  idxOne="18"  idxTwo="19"  coef="-4.62e-2"/><qTerm  idx="-1"  idxOne="19"  idxTwo="19"  coef="-.717"/></quadraticCoefficients></instanceData></osil>
